data/ILP/instance145.lp
Minimize
obj: 7y_1 + 3y_2 + 3y_3 + 100000y_4 + 7y_5 + 3y_6 + 100000y_7 + 1y_8 + 10y_9 + 100000y_10 + 3y_11 + 100000y_12 + 3y_13 + 10y_14 + 9y_15 + 3y_16 + 100000y_17 + 9y_18 + 10y_19 + 12y_20 + 1y_21 + 6y_22 + 100000y_23 + 100000y_24 + 9y_25 + 3y_26 + 10y_27 + 3y_28 + 3y_29 + 9y_30 + 100000y_31 + 10y_32 + 12y_33 + 1y_34 + 6y_35 + 100000y_36 + 100000y_37 + 13y_38 + 10y_39 + 3y_40 + 100000y_41 + 3y_42 + 10y_43 + 13y_44 + 6y_45 + 1y_46 + 100000y_47 + 1y_48 + 100000y_49 + 1y_50 + 1y_51 + 3y_52 + 100000y_53 + 1y_54 + 1y_55 + 100000y_56 + 2y_57 + 100000y_58 + 1y_59 + 1y_60 + 7y_61 + 10y_62 + 100000y_63 + 10y_64 + 7y_65 + 100000y_66 + 9y_67 + 3y_68 + 100000y_69 + 7y_70 + 10y_71 + 6y_72 + 100000y_73 + 7y_74 + 10y_75 + 7y_76 + 3y_77 + 100000y_78 + 10y_79 + 1y_80 + 7y_81 + 7y_82 + 100000y_83 + 100000y_84 + 9y_85 + 3y_86 + 7y_87 + 10y_88 + 100000y_89 + 7y_90 + 1y_91 + 6y_92 + 100000y_93 + 10y_94 + 7y_95 + 3y_96 + 9y_97 + 1y_98 + 9y_99 + 10y_100 + 100000y_101 + 7y_102 + 7y_103 + 3y_104 + 9y_105 + 100000y_106 + 6y_107 + 10y_108 + 1y_109 + 100000y_110 + 7y_111 + 7y_112 + 10y_113 + 9y_114 + 3y_115 + 100000y_116 + 100000y_117 + 1y_118 + 9y_119 + 10y_120 + 7y_121 + 3y_122 + 4y_123 + 7y_124 + 100000y_125 + 100000y_126 + 7y_127 + 10y_128 + 4y_129 + 1y_130 + 4y_131 + 20y_132 + 3y_133 + 100000y_134 + 2y_135 + 4y_136 + 10y_137 + 100000y_138 + 100000y_139 + 13y_140 + 10y_141 + 1y_142 + 14y_143 + 100000y_144 + 10y_145 + 13y_146 + 14y_147 + 2y_148 + 100000y_149 + 1y_150 + 14y_151 + 10y_152 + 100000y_153 + 2y_154 + 14y_155 + 1y_156 + 10y_157 + 2y_158 + 1y_159 + 100000y_160 + 100000y_161 + 10y_162 + 2y_163 + 1y_164 + 1y_165 + 9y_166 + 100000y_167 + 10y_168 + 1y_169 + 10y_170 + 100000y_171 + 9y_172 + 1y_173 + 1y_174 + 1y_175 + 100000y_176 + 100000y_177 + 10y_178 + 3y_179 + 1y_180 + 6y_181 + 1y_182 + 10y_183 + 1y_184 + 100000y_185 + 1y_186 + 6y_187 + 10y_188 + 100000y_189 + 1y_190 + 1y_191 + 1y_192 + 100000y_193 + 10y_194 + 1y_195 + 100000y_196 + 1y_197 + 10y_198 + 1y_199 + 1y_200 + 100000y_201 + 10y_202 + 1y_203 + 100000y_204 + 100000y_205 + 89y_206 + 1y_207 + 1y_208 + 1y_209 + 1y_210 + 1y_211 + 89y_212 + 1y_213 + 1y_214 + 1y_215 + 1y_216 + 1y_217 + 1y_218 + 1y_219 + 1y_220 + 1y_221 + 6y_222 + 1y_223 + 1y_224 + 1y_225 + 1y_226 + 1y_227 + 1y_228 + 10y_229 + 6y_230 + 1y_231 + 1y_232 + 1y_233 + 6y_234 + 2y_235 + 1y_236 + 6y_237 + 1y_238 + 2y_239 + 1y_240 + 1y_241 + 2y_242 + 1y_243 + 1y_244 + 6y_245 + 10y_246 + 1y_247 + 2y_248 + 1y_249 + 3y_250 + 1y_251 + 1y_252 + 1y_253 + 1y_254 + 2y_255 + 1y_256 + 1y_257 + 1y_258 + 1y_259 + 3y_260 + 1y_261 + 1y_262 + 10y_263 + 2y_264 + 3y_265 + 1y_266 + 1y_267 + 1y_268 + 3y_269 + 10y_270 + 1y_271 + 3y_272 + 1y_273 + 1y_274 + 1y_275 + 1y_276 + 1y_277 + 1y_278 + 1y_279 + 1y_280 + 3y_281 + 1y_282 + 1y_283 + 1y_284 + 1y_285 + 9y_286 + 3y_287 + 10y_288 + 1y_289 + 1y_290 + 9y_291 + 1y_292 + 10y_293 + 1y_294 + 1y_295 + 10y_296 + 2y_297 + 6y_298 + 1y_299 + 2y_300 + 10y_301 + 1y_302 + 1y_303 + 10y_304 + 1y_305 + 3y_306 + 1y_307 + 1y_308 + 2y_309 + 1y_310 + 1y_311 + 9y_312 + 2y_313 + 1y_314 + 1y_315 + 9y_316 + 10y_317 + 1y_318 + 10y_319 + 1y_320 + 2y_321 + 14y_322 + 20y_323 + 1y_324 + 14y_325 + 2y_326 + 10y_327 + 3y_328 + 2y_329 + 4y_330 + 3y_331 + 10y_332 + 3y_333 + 7y_334 + 10y_335 + 4y_336 + 9y_337 + 7y_338 + 3y_339 + 2y_340 + 3y_341 + 10y_342 + 1y_343 + 6y_344 + 7y_345 + 1y_346 + 9y_347 + 9y_348 + 3y_349 + 1y_350 + 12y_351 + 7y_352 + 6y_353 + 10y_354 + 3y_355 + 10y_356 + 6y_357 + 3y_358 + 7y_359 + 9y_360 + 7y_361 + 3y_362 + 6y_363 + 3y_364 + 1y_365 + 10y_366 + 7y_367 + 1y_368 + 6y_369 + 9y_370 + 3y_371 + 9y_372 + 12y_373 + 7y_374 + 1y_375 + 6y_376 + 3y_377 + 10y_378 + 6y_379 + 10y_380 + 7y_381 + 3y_382 + 7y_383 + 3y_384 + 7y_385 + 3y_386 + 1y_387 + 10y_388 + 6y_389 + 9y_390 + 7y_391 + 3y_392 + 7y_393 + 6y_394 + 1y_395 + 10y_396 + 3y_397 + 6y_398 + 7y_399 + 1y_400 + 10y_401 + 7y_402 + 3y_403 + 10y_404 + 6y_405 + 1y_406 + 3y_407 + 10y_408 + 6y_409 + 100000y_410 + 100000y_411 + 100000y_412 + 100000y_413 + 100000y_414 + 100000y_415 + 100000y_416 + 100000y_417 + 100000y_418 + 100000y_419 + 100000y_420 + 100000y_421 + 100000y_422 + 100000y_423 + 100000y_424 + 100000y_425 + 100000y_426 + 100000y_427 + 100000y_428 + 100000y_429 + 100000y_430 + 100000y_431 + 100000y_432 + 100000y_433 + 100000y_434 + 100000y_435 + 100000y_436 + 100000y_437 + 100000y_438 + 100000y_439 + 100000y_440 + 100000y_441 + 100000y_442 + 100000y_443 + 100000y_444 + 100000y_445 + 100000y_446 + 100000y_447 + 100000y_448 + 100000y_449 + 100000y_450 + 100000y_451 + 100000y_452 + 100000y_453 + 100000y_454 + 100000y_455 + 100000y_456 + 100000y_457 + 100000y_458 + 100000y_459 + 100000y_460
Subject To
x_461 = 22
x_480 = 1
x_481 = 1
x_482 = 1
x_483 = 1
x_462 = 1
x_463 = 1
x_464 = 1
x_465 = 1
x_466 = 1
x_467 = 1
x_468 = 1
x_469 = 1
x_470 = 1
x_471 = 1
x_472 = 1
x_473 = 1
x_474 = 1
x_475 = 1
x_476 = 1
x_477 = 1
x_478 = 1
x_479 = 1
x_1 - 23y_1 <= 0
x_2 - 23y_2 <= 0
x_3 - 23y_3 <= 0
x_4 - 23y_4 <= 0
x_5 - 23y_5 <= 0
x_6 - 23y_6 <= 0
x_7 - 23y_7 <= 0
x_8 - 23y_8 <= 0
x_9 - 23y_9 <= 0
x_10 - 23y_10 <= 0
x_11 - 23y_11 <= 0
x_12 - 23y_12 <= 0
x_13 - 23y_13 <= 0
x_14 - 23y_14 <= 0
x_15 - 23y_15 <= 0
x_16 - 23y_16 <= 0
x_17 - 23y_17 <= 0
x_18 - 23y_18 <= 0
x_19 - 23y_19 <= 0
x_20 - 23y_20 <= 0
x_21 - 23y_21 <= 0
x_22 - 23y_22 <= 0
x_23 - 23y_23 <= 0
x_24 - 23y_24 <= 0
x_25 - 23y_25 <= 0
x_26 - 23y_26 <= 0
x_27 - 23y_27 <= 0
x_28 - 23y_28 <= 0
x_29 - 23y_29 <= 0
x_30 - 23y_30 <= 0
x_31 - 23y_31 <= 0
x_32 - 23y_32 <= 0
x_33 - 23y_33 <= 0
x_34 - 23y_34 <= 0
x_35 - 23y_35 <= 0
x_36 - 23y_36 <= 0
x_37 - 23y_37 <= 0
x_38 - 23y_38 <= 0
x_39 - 23y_39 <= 0
x_40 - 23y_40 <= 0
x_41 - 23y_41 <= 0
x_42 - 23y_42 <= 0
x_43 - 23y_43 <= 0
x_44 - 23y_44 <= 0
x_45 - 23y_45 <= 0
x_46 - 23y_46 <= 0
x_47 - 23y_47 <= 0
x_48 - 23y_48 <= 0
x_49 - 23y_49 <= 0
x_50 - 23y_50 <= 0
x_51 - 23y_51 <= 0
x_52 - 23y_52 <= 0
x_53 - 23y_53 <= 0
x_54 - 23y_54 <= 0
x_55 - 23y_55 <= 0
x_56 - 23y_56 <= 0
x_57 - 23y_57 <= 0
x_58 - 23y_58 <= 0
x_59 - 23y_59 <= 0
x_60 - 23y_60 <= 0
x_61 - 23y_61 <= 0
x_62 - 23y_62 <= 0
x_63 - 23y_63 <= 0
x_64 - 23y_64 <= 0
x_65 - 23y_65 <= 0
x_66 - 23y_66 <= 0
x_67 - 23y_67 <= 0
x_68 - 23y_68 <= 0
x_69 - 23y_69 <= 0
x_70 - 23y_70 <= 0
x_71 - 23y_71 <= 0
x_72 - 23y_72 <= 0
x_73 - 23y_73 <= 0
x_74 - 23y_74 <= 0
x_75 - 23y_75 <= 0
x_76 - 23y_76 <= 0
x_77 - 23y_77 <= 0
x_78 - 23y_78 <= 0
x_79 - 23y_79 <= 0
x_80 - 23y_80 <= 0
x_81 - 23y_81 <= 0
x_82 - 23y_82 <= 0
x_83 - 23y_83 <= 0
x_84 - 23y_84 <= 0
x_85 - 23y_85 <= 0
x_86 - 23y_86 <= 0
x_87 - 23y_87 <= 0
x_88 - 23y_88 <= 0
x_89 - 23y_89 <= 0
x_90 - 23y_90 <= 0
x_91 - 23y_91 <= 0
x_92 - 23y_92 <= 0
x_93 - 23y_93 <= 0
x_94 - 23y_94 <= 0
x_95 - 23y_95 <= 0
x_96 - 23y_96 <= 0
x_97 - 23y_97 <= 0
x_98 - 23y_98 <= 0
x_99 - 23y_99 <= 0
x_100 - 23y_100 <= 0
x_101 - 23y_101 <= 0
x_102 - 23y_102 <= 0
x_103 - 23y_103 <= 0
x_104 - 23y_104 <= 0
x_105 - 23y_105 <= 0
x_106 - 23y_106 <= 0
x_107 - 23y_107 <= 0
x_108 - 23y_108 <= 0
x_109 - 23y_109 <= 0
x_110 - 23y_110 <= 0
x_111 - 23y_111 <= 0
x_112 - 23y_112 <= 0
x_113 - 23y_113 <= 0
x_114 - 23y_114 <= 0
x_115 - 23y_115 <= 0
x_116 - 23y_116 <= 0
x_117 - 23y_117 <= 0
x_118 - 23y_118 <= 0
x_119 - 23y_119 <= 0
x_120 - 23y_120 <= 0
x_121 - 23y_121 <= 0
x_122 - 23y_122 <= 0
x_123 - 23y_123 <= 0
x_124 - 23y_124 <= 0
x_125 - 23y_125 <= 0
x_126 - 23y_126 <= 0
x_127 - 23y_127 <= 0
x_128 - 23y_128 <= 0
x_129 - 23y_129 <= 0
x_130 - 23y_130 <= 0
x_131 - 23y_131 <= 0
x_132 - 23y_132 <= 0
x_133 - 23y_133 <= 0
x_134 - 23y_134 <= 0
x_135 - 23y_135 <= 0
x_136 - 23y_136 <= 0
x_137 - 23y_137 <= 0
x_138 - 23y_138 <= 0
x_139 - 23y_139 <= 0
x_140 - 23y_140 <= 0
x_141 - 23y_141 <= 0
x_142 - 23y_142 <= 0
x_143 - 23y_143 <= 0
x_144 - 23y_144 <= 0
x_145 - 23y_145 <= 0
x_146 - 23y_146 <= 0
x_147 - 23y_147 <= 0
x_148 - 23y_148 <= 0
x_149 - 23y_149 <= 0
x_150 - 23y_150 <= 0
x_151 - 23y_151 <= 0
x_152 - 23y_152 <= 0
x_153 - 23y_153 <= 0
x_154 - 23y_154 <= 0
x_155 - 23y_155 <= 0
x_156 - 23y_156 <= 0
x_157 - 23y_157 <= 0
x_158 - 23y_158 <= 0
x_159 - 23y_159 <= 0
x_160 - 23y_160 <= 0
x_161 - 23y_161 <= 0
x_162 - 23y_162 <= 0
x_163 - 23y_163 <= 0
x_164 - 23y_164 <= 0
x_165 - 23y_165 <= 0
x_166 - 23y_166 <= 0
x_167 - 23y_167 <= 0
x_168 - 23y_168 <= 0
x_169 - 23y_169 <= 0
x_170 - 23y_170 <= 0
x_171 - 23y_171 <= 0
x_172 - 23y_172 <= 0
x_173 - 23y_173 <= 0
x_174 - 23y_174 <= 0
x_175 - 23y_175 <= 0
x_176 - 23y_176 <= 0
x_177 - 23y_177 <= 0
x_178 - 23y_178 <= 0
x_179 - 23y_179 <= 0
x_180 - 23y_180 <= 0
x_181 - 23y_181 <= 0
x_182 - 23y_182 <= 0
x_183 - 23y_183 <= 0
x_184 - 23y_184 <= 0
x_185 - 23y_185 <= 0
x_186 - 23y_186 <= 0
x_187 - 23y_187 <= 0
x_188 - 23y_188 <= 0
x_189 - 23y_189 <= 0
x_190 - 23y_190 <= 0
x_191 - 23y_191 <= 0
x_192 - 23y_192 <= 0
x_193 - 23y_193 <= 0
x_194 - 23y_194 <= 0
x_195 - 23y_195 <= 0
x_196 - 23y_196 <= 0
x_197 - 23y_197 <= 0
x_198 - 23y_198 <= 0
x_199 - 23y_199 <= 0
x_200 - 23y_200 <= 0
x_201 - 23y_201 <= 0
x_202 - 23y_202 <= 0
x_203 - 23y_203 <= 0
x_204 - 23y_204 <= 0
x_205 - 23y_205 <= 0
x_206 - 23y_206 <= 0
x_207 - 23y_207 <= 0
x_208 - 23y_208 <= 0
x_209 - 23y_209 <= 0
x_210 - 23y_210 <= 0
x_211 - 23y_211 <= 0
x_212 - 23y_212 <= 0
x_213 - 23y_213 <= 0
x_214 - 23y_214 <= 0
x_215 - 23y_215 <= 0
x_216 - 23y_216 <= 0
x_217 - 23y_217 <= 0
x_218 - 23y_218 <= 0
x_219 - 23y_219 <= 0
x_220 - 23y_220 <= 0
x_221 - 23y_221 <= 0
x_222 - 23y_222 <= 0
x_223 - 23y_223 <= 0
x_224 - 23y_224 <= 0
x_225 - 23y_225 <= 0
x_226 - 23y_226 <= 0
x_227 - 23y_227 <= 0
x_228 - 23y_228 <= 0
x_229 - 23y_229 <= 0
x_230 - 23y_230 <= 0
x_231 - 23y_231 <= 0
x_232 - 23y_232 <= 0
x_233 - 23y_233 <= 0
x_234 - 23y_234 <= 0
x_235 - 23y_235 <= 0
x_236 - 23y_236 <= 0
x_237 - 23y_237 <= 0
x_238 - 23y_238 <= 0
x_239 - 23y_239 <= 0
x_240 - 23y_240 <= 0
x_241 - 23y_241 <= 0
x_242 - 23y_242 <= 0
x_243 - 23y_243 <= 0
x_244 - 23y_244 <= 0
x_245 - 23y_245 <= 0
x_246 - 23y_246 <= 0
x_247 - 23y_247 <= 0
x_248 - 23y_248 <= 0
x_249 - 23y_249 <= 0
x_250 - 23y_250 <= 0
x_251 - 23y_251 <= 0
x_252 - 23y_252 <= 0
x_253 - 23y_253 <= 0
x_254 - 23y_254 <= 0
x_255 - 23y_255 <= 0
x_256 - 23y_256 <= 0
x_257 - 23y_257 <= 0
x_258 - 23y_258 <= 0
x_259 - 23y_259 <= 0
x_260 - 23y_260 <= 0
x_261 - 23y_261 <= 0
x_262 - 23y_262 <= 0
x_263 - 23y_263 <= 0
x_264 - 23y_264 <= 0
x_265 - 23y_265 <= 0
x_266 - 23y_266 <= 0
x_267 - 23y_267 <= 0
x_268 - 23y_268 <= 0
x_269 - 23y_269 <= 0
x_270 - 23y_270 <= 0
x_271 - 23y_271 <= 0
x_272 - 23y_272 <= 0
x_273 - 23y_273 <= 0
x_274 - 23y_274 <= 0
x_275 - 23y_275 <= 0
x_276 - 23y_276 <= 0
x_277 - 23y_277 <= 0
x_278 - 23y_278 <= 0
x_279 - 23y_279 <= 0
x_280 - 23y_280 <= 0
x_281 - 23y_281 <= 0
x_282 - 23y_282 <= 0
x_283 - 23y_283 <= 0
x_284 - 23y_284 <= 0
x_285 - 23y_285 <= 0
x_286 - 23y_286 <= 0
x_287 - 23y_287 <= 0
x_288 - 23y_288 <= 0
x_289 - 23y_289 <= 0
x_290 - 23y_290 <= 0
x_291 - 23y_291 <= 0
x_292 - 23y_292 <= 0
x_293 - 23y_293 <= 0
x_294 - 23y_294 <= 0
x_295 - 23y_295 <= 0
x_296 - 23y_296 <= 0
x_297 - 23y_297 <= 0
x_298 - 23y_298 <= 0
x_299 - 23y_299 <= 0
x_300 - 23y_300 <= 0
x_301 - 23y_301 <= 0
x_302 - 23y_302 <= 0
x_303 - 23y_303 <= 0
x_304 - 23y_304 <= 0
x_305 - 23y_305 <= 0
x_306 - 23y_306 <= 0
x_307 - 23y_307 <= 0
x_308 - 23y_308 <= 0
x_309 - 23y_309 <= 0
x_310 - 23y_310 <= 0
x_311 - 23y_311 <= 0
x_312 - 23y_312 <= 0
x_313 - 23y_313 <= 0
x_314 - 23y_314 <= 0
x_315 - 23y_315 <= 0
x_316 - 23y_316 <= 0
x_317 - 23y_317 <= 0
x_318 - 23y_318 <= 0
x_319 - 23y_319 <= 0
x_320 - 23y_320 <= 0
x_321 - 23y_321 <= 0
x_322 - 23y_322 <= 0
x_323 - 23y_323 <= 0
x_324 - 23y_324 <= 0
x_325 - 23y_325 <= 0
x_326 - 23y_326 <= 0
x_327 - 23y_327 <= 0
x_328 - 23y_328 <= 0
x_329 - 23y_329 <= 0
x_330 - 23y_330 <= 0
x_331 - 23y_331 <= 0
x_332 - 23y_332 <= 0
x_333 - 23y_333 <= 0
x_334 - 23y_334 <= 0
x_335 - 23y_335 <= 0
x_336 - 23y_336 <= 0
x_337 - 23y_337 <= 0
x_338 - 23y_338 <= 0
x_339 - 23y_339 <= 0
x_340 - 23y_340 <= 0
x_341 - 23y_341 <= 0
x_342 - 23y_342 <= 0
x_343 - 23y_343 <= 0
x_344 - 23y_344 <= 0
x_345 - 23y_345 <= 0
x_346 - 23y_346 <= 0
x_347 - 23y_347 <= 0
x_348 - 23y_348 <= 0
x_349 - 23y_349 <= 0
x_350 - 23y_350 <= 0
x_351 - 23y_351 <= 0
x_352 - 23y_352 <= 0
x_353 - 23y_353 <= 0
x_354 - 23y_354 <= 0
x_355 - 23y_355 <= 0
x_356 - 23y_356 <= 0
x_357 - 23y_357 <= 0
x_358 - 23y_358 <= 0
x_359 - 23y_359 <= 0
x_360 - 23y_360 <= 0
x_361 - 23y_361 <= 0
x_362 - 23y_362 <= 0
x_363 - 23y_363 <= 0
x_364 - 23y_364 <= 0
x_365 - 23y_365 <= 0
x_366 - 23y_366 <= 0
x_367 - 23y_367 <= 0
x_368 - 23y_368 <= 0
x_369 - 23y_369 <= 0
x_370 - 23y_370 <= 0
x_371 - 23y_371 <= 0
x_372 - 23y_372 <= 0
x_373 - 23y_373 <= 0
x_374 - 23y_374 <= 0
x_375 - 23y_375 <= 0
x_376 - 23y_376 <= 0
x_377 - 23y_377 <= 0
x_378 - 23y_378 <= 0
x_379 - 23y_379 <= 0
x_380 - 23y_380 <= 0
x_381 - 23y_381 <= 0
x_382 - 23y_382 <= 0
x_383 - 23y_383 <= 0
x_384 - 23y_384 <= 0
x_385 - 23y_385 <= 0
x_386 - 23y_386 <= 0
x_387 - 23y_387 <= 0
x_388 - 23y_388 <= 0
x_389 - 23y_389 <= 0
x_390 - 23y_390 <= 0
x_391 - 23y_391 <= 0
x_392 - 23y_392 <= 0
x_393 - 23y_393 <= 0
x_394 - 23y_394 <= 0
x_395 - 23y_395 <= 0
x_396 - 23y_396 <= 0
x_397 - 23y_397 <= 0
x_398 - 23y_398 <= 0
x_399 - 23y_399 <= 0
x_400 - 23y_400 <= 0
x_401 - 23y_401 <= 0
x_402 - 23y_402 <= 0
x_403 - 23y_403 <= 0
x_404 - 23y_404 <= 0
x_405 - 23y_405 <= 0
x_406 - 23y_406 <= 0
x_407 - 23y_407 <= 0
x_408 - 23y_408 <= 0
x_409 - 23y_409 <= 0
x_410 - 23y_410 <= 0
x_411 - 23y_411 <= 0
x_412 - 23y_412 <= 0
x_413 - 23y_413 <= 0
x_414 - 23y_414 <= 0
x_415 - 23y_415 <= 0
x_416 - 23y_416 <= 0
x_417 - 23y_417 <= 0
x_418 - 23y_418 <= 0
x_419 - 23y_419 <= 0
x_420 - 23y_420 <= 0
x_421 - 23y_421 <= 0
x_422 - 23y_422 <= 0
x_423 - 23y_423 <= 0
x_424 - 23y_424 <= 0
x_425 - 23y_425 <= 0
x_426 - 23y_426 <= 0
x_427 - 23y_427 <= 0
x_428 - 23y_428 <= 0
x_429 - 23y_429 <= 0
x_430 - 23y_430 <= 0
x_431 - 23y_431 <= 0
x_432 - 23y_432 <= 0
x_433 - 23y_433 <= 0
x_434 - 23y_434 <= 0
x_435 - 23y_435 <= 0
x_436 - 23y_436 <= 0
x_437 - 23y_437 <= 0
x_438 - 23y_438 <= 0
x_439 - 23y_439 <= 0
x_440 - 23y_440 <= 0
x_441 - 23y_441 <= 0
x_442 - 23y_442 <= 0
x_443 - 23y_443 <= 0
x_444 - 23y_444 <= 0
x_445 - 23y_445 <= 0
x_446 - 23y_446 <= 0
x_447 - 23y_447 <= 0
x_448 - 23y_448 <= 0
x_449 - 23y_449 <= 0
x_450 - 23y_450 <= 0
x_451 - 23y_451 <= 0
x_452 - 23y_452 <= 0
x_453 - 23y_453 <= 0
x_454 - 23y_454 <= 0
x_455 - 23y_455 <= 0
x_456 - 23y_456 <= 0
x_457 - 23y_457 <= 0
x_458 - 23y_458 <= 0
x_459 - 23y_459 <= 0
x_460 - 23y_460 <= 0
x_3 - x_392 +  x_2 - x_397 +  x_1 - x_74 +  x_4 - x_411 = 0
x_6 - x_407 +  x_5 - x_81 +  x_7 - x_412 = 0
x_10 - x_410 +  x_8 - x_406 +  x_9 - x_401 = 0
x_11 - x_377 +  x_12 - x_413 +  x_13 - x_371 +  x_15 - x_97 +  x_14 - x_19 = 0
x_17 - x_414 +  x_16 - x_386 +  x_19 - x_14 +  x_18 - x_99 = 0
x_21 - x_387 +  x_20 - x_373 +  x_23 - x_415 +  x_22 - x_394 = 0
x_26 - x_355 +  x_24 - x_416 +  x_27 - x_32 +  x_28 - x_349 +  x_25 - x_114 = 0
x_31 - x_417 +  x_29 - x_364 +  x_32 - x_27 +  x_30 - x_119 = 0
x_35 - x_369 +  x_33 - x_351 +  x_36 - x_418 +  x_34 - x_365 = 0
x_37 - x_420 +  x_40 - x_328 +  x_39 - x_43 +  x_38 - x_140 = 0
x_42 - x_341 +  x_44 - x_146 +  x_43 - x_39 +  x_41 - x_419 = 0
x_46 - x_343 +  x_47 - x_421 +  x_45 - x_344 = 0
x_48 - x_51 +  x_50 - x_243 +  x_49 - x_424 = 0
x_52 - x_265 +  x_54 - x_251 +  x_53 - x_425 +  x_51 - x_48 = 0
x_57 - x_309 +  x_55 - x_295 +  x_56 - x_422 = 0
x_58 - x_423 +  x_60 - x_308 +  x_59 - x_303 = 0
x_63 - x_427 +  x_61 - x_402 +  x_62 - x_64 = 0
x_66 - x_426 +  x_65 - x_70 +  x_64 - x_62 = 0
x_68 - x_403 +  x_67 - x_390 +  x_69 - x_428 = 0
x_71 - x_404 +  x_72 - x_409 +  x_70 - x_65 +  x_73 - x_429 = 0
x_78 - x_430 +  x_75 - x_79 +  x_77 - x_384 +  x_74 - x_1 +  x_76 - x_381 = 0
x_80 - x_400 +  x_83 - x_431 +  x_82 - x_90 +  x_79 - x_75 +  x_81 - x_5 = 0
x_87 - x_385 +  x_84 - x_433 +  x_86 - x_382 +  x_85 - x_372 = 0
x_92 - x_389 +  x_88 - x_380 +  x_91 - x_395 +  x_89 - x_432 +  x_90 - x_82 = 0
x_94 - x_100 +  x_95 - x_359 +  x_93 - x_434 +  x_97 - x_15 +  x_96 - x_362 = 0
x_102 - x_111 +  x_99 - x_18 +  x_100 - x_94 +  x_101 - x_435 +  x_98 - x_375 = 0
x_104 - x_358 +  x_105 - x_348 +  x_103 - x_361 +  x_106 - x_437 = 0
x_108 - x_356 +  x_107 - x_363 +  x_109 - x_368 +  x_110 - x_436 +  x_111 - x_102 = 0
x_112 - x_334 +  x_115 - x_339 +  x_116 - x_439 +  x_114 - x_25 +  x_113 - x_120 = 0
x_118 - x_350 +  x_117 - x_438 +  x_121 - x_127 +  x_119 - x_30 +  x_120 - x_113 = 0
x_123 - x_131 +  x_124 - x_338 +  x_122 - x_333 +  x_125 - x_441 = 0
x_127 - x_121 +  x_128 - x_335 +  x_126 - x_440 +  x_129 - x_136 +  x_130 - x_346 = 0
x_134 - x_442 +  x_133 - x_331 +  x_131 - x_123 +  x_132 - x_323 = 0
x_137 - x_332 +  x_138 - x_443 +  x_135 - x_340 +  x_136 - x_129 = 0
x_141 - x_145 +  x_142 - x_324 +  x_139 - x_444 +  x_143 - x_322 +  x_140 - x_38 = 0
x_145 - x_141 +  x_147 - x_155 +  x_144 - x_445 +  x_146 - x_44 = 0
x_149 - x_446 +  x_151 - x_325 +  x_150 - x_320 +  x_148 - x_313 = 0
x_152 - x_319 +  x_154 - x_163 +  x_155 - x_147 +  x_153 - x_447 = 0
x_156 - x_314 +  x_160 - x_449 +  x_159 - x_169 +  x_158 - x_321 +  x_157 - x_162 = 0
x_163 - x_154 +  x_164 - x_173 +  x_162 - x_157 +  x_161 - x_448 = 0
x_168 - x_170 +  x_167 - x_450 +  x_165 - x_310 +  x_166 - x_291 +  x_169 - x_159 = 0
x_173 - x_164 +  x_170 - x_168 +  x_171 - x_451 +  x_172 - x_316 = 0
x_175 - x_266 +  x_174 - x_276 +  x_176 - x_453 = 0
x_178 - x_288 +  x_180 - x_318 +  x_179 - x_306 +  x_177 - x_452 = 0
x_181 - x_245 +  x_182 - x_190 +  x_184 - x_233 +  x_185 - x_455 +  x_183 - x_188 = 0
x_186 - x_195 +  x_189 - x_454 +  x_187 - x_298 +  x_188 - x_183 = 0
x_192 - x_227 +  x_194 - x_198 +  x_193 - x_456 +  x_190 - x_182 +  x_191 - x_224 = 0
x_198 - x_194 +  x_196 - x_457 +  x_197 - x_203 +  x_195 - x_186 = 0
x_200 - x_209 +  x_199 - x_211 +  x_201 - x_458 = 0
x_202 - x_229 +  x_204 - x_459 +  x_203 - x_197 = 0
x_206 - x_212 +  x_205 - x_460 = 0
x_209 - x_200 +  x_208 - x_214 +  x_207 - x_217 = 0
x_211 - x_199 +  x_212 - x_206 +  x_210 - x_216 = 0
x_213 - x_223 +  x_214 - x_208 +  x_215 - x_221 = 0
x_218 - x_225 +  x_219 - x_228 +  x_216 - x_210 +  x_217 - x_207 = 0
x_220 - x_231 +  x_221 - x_215 +  x_222 - x_234 = 0
x_223 - x_213 +  x_224 - x_191 +  x_226 - x_232 +  x_225 - x_218 = 0
x_229 - x_202 +  x_228 - x_219 +  x_227 - x_192 = 0
x_233 - x_184 +  x_230 - x_237 +  x_232 - x_226 +  x_231 - x_220 = 0
x_236 - x_240 +  x_234 - x_222 +  x_235 - x_242 = 0
x_237 - x_230 +  x_239 - x_255 +  x_240 - x_236 +  x_238 - x_247 = 0
x_244 - x_252 +  x_243 - x_50 +  x_242 - x_235 +  x_241 - x_253 = 0
x_247 - x_238 +  x_245 - x_181 +  x_248 - x_264 +  x_246 - x_296 = 0
x_250 - x_272 +  x_251 - x_54 +  x_252 - x_244 +  x_249 - x_258 = 0
x_256 - x_261 +  x_254 - x_257 +  x_253 - x_241 +  x_255 - x_239 = 0
x_259 - x_271 +  x_258 - x_249 +  x_260 - x_281 +  x_257 - x_254 = 0
x_261 - x_256 +  x_264 - x_248 +  x_262 - x_268 +  x_263 - x_301 = 0
x_265 - x_52 +  x_266 - x_175 +  x_267 - x_274 = 0
x_268 - x_262 +  x_270 - x_304 +  x_271 - x_259 +  x_269 - x_287 = 0
x_274 - x_267 +  x_275 - x_278 +  x_272 - x_250 +  x_273 - x_280 = 0
x_277 - x_284 +  x_278 - x_275 +  x_276 - x_174 = 0
x_280 - x_273 +  x_281 - x_260 +  x_282 - x_289 +  x_279 - x_283 = 0
x_285 - x_292 +  x_283 - x_279 +  x_286 - x_312 +  x_284 - x_277 = 0
x_287 - x_269 +  x_290 - x_294 +  x_288 - x_178 +  x_289 - x_282 = 0
x_293 - x_317 +  x_291 - x_166 +  x_294 - x_290 +  x_292 - x_285 = 0
x_298 - x_187 +  x_295 - x_55 +  x_297 - x_300 +  x_296 - x_246 = 0
x_299 - x_307 +  x_300 - x_297 +  x_301 - x_263 +  x_302 - x_305 = 0
x_303 - x_59 +  x_305 - x_302 +  x_306 - x_179 +  x_304 - x_270 = 0
x_307 - x_299 +  x_309 - x_57 +  x_308 - x_60 = 0
x_311 - x_315 +  x_310 - x_165 +  x_312 - x_286 = 0
x_314 - x_156 +  x_315 - x_311 +  x_313 - x_148 = 0
x_318 - x_180 +  x_317 - x_293 +  x_316 - x_172 = 0
x_319 - x_152 +  x_322 - x_143 +  x_320 - x_150 +  x_321 - x_158 = 0
x_323 - x_132 +  x_324 - x_142 +  x_325 - x_151 = 0
x_326 - x_329 +  x_328 - x_40 +  x_327 - x_342 = 0
x_329 - x_326 +  x_332 - x_137 +  x_330 - x_336 +  x_331 - x_133 = 0
x_336 - x_330 +  x_333 - x_122 +  x_334 - x_112 +  x_335 - x_128 = 0
x_337 - x_347 +  x_339 - x_115 +  x_338 - x_124 = 0
x_340 - x_135 +  x_341 - x_42 +  x_342 - x_327 +  x_343 - x_46 = 0
x_345 - x_352 +  x_346 - x_130 +  x_344 - x_45 = 0
x_347 - x_337 +  x_348 - x_105 +  x_349 - x_28 = 0
x_351 - x_33 +  x_350 - x_118 +  x_352 - x_345 = 0
x_353 - x_357 +  x_355 - x_26 +  x_354 - x_366 = 0
x_359 - x_95 +  x_356 - x_108 +  x_358 - x_104 +  x_357 - x_353 = 0
x_360 - x_370 +  x_361 - x_103 +  x_362 - x_96 = 0
x_363 - x_107 +  x_364 - x_29 +  x_366 - x_354 +  x_365 - x_34 = 0
x_367 - x_374 +  x_368 - x_109 +  x_369 - x_35 = 0
x_372 - x_85 +  x_371 - x_13 +  x_370 - x_360 = 0
x_373 - x_20 +  x_374 - x_367 +  x_375 - x_98 = 0
x_378 - x_388 +  x_376 - x_379 +  x_377 - x_11 = 0
x_382 - x_86 +  x_379 - x_376 +  x_381 - x_76 +  x_380 - x_88 = 0
x_385 - x_87 +  x_384 - x_77 +  x_383 - x_391 = 0
x_388 - x_378 +  x_387 - x_21 +  x_386 - x_16 +  x_389 - x_92 = 0
x_392 - x_3 +  x_390 - x_67 +  x_391 - x_383 = 0
x_394 - x_22 +  x_395 - x_91 +  x_393 - x_399 = 0
x_397 - x_2 +  x_396 - x_408 +  x_398 - x_405 = 0
x_400 - x_80 +  x_401 - x_9 +  x_399 - x_393 = 0
x_404 - x_71 +  x_405 - x_398 +  x_402 - x_61 +  x_403 - x_68 = 0
x_406 - x_8 +  x_409 - x_72 +  x_407 - x_6 +  x_408 - x_396 = 0
x_410 - x_10 +  x_412 - x_7 +  x_411 - x_4 - x_466 = 0
x_413 - x_12 - x_467 +  x_414 - x_17 +  x_415 - x_23 = 0
x_416 - x_24 +  x_418 - x_36 - x_468 +  x_417 - x_31 = 0
-x_469 +  x_420 - x_37 +  x_419 - x_41 +  x_421 - x_47 = 0
x_422 - x_56 +  x_425 - x_53 +  x_423 - x_58 +  x_424 - x_49 - x_470 = 0
x_426 - x_66 - x_471 +  x_427 - x_63 = 0
x_428 - x_69 +  x_429 - x_73 - x_472 = 0
x_430 - x_78 - x_473 +  x_431 - x_83 = 0
x_432 - x_89 - x_474 +  x_433 - x_84 = 0
x_435 - x_101 +  x_434 - x_93 - x_475 = 0
x_436 - x_110 +  x_437 - x_106 - x_476 = 0
x_439 - x_116 - x_477 +  x_438 - x_117 = 0
x_441 - x_125 - x_478 +  x_440 - x_126 = 0
-x_479 +  x_442 - x_134 +  x_443 - x_138 = 0
-x_480 +  x_445 - x_144 +  x_444 - x_139 = 0
x_447 - x_153 - x_481 +  x_446 - x_149 = 0
x_448 - x_161 +  x_449 - x_160 - x_482 = 0
x_451 - x_171 - x_483 +  x_450 - x_167 = 0
x_452 - x_177 +  x_461 +  x_453 - x_176 = 0
-x_462 +  x_455 - x_185 +  x_454 - x_189 = 0
-x_463 +  x_457 - x_196 +  x_456 - x_193 = 0
-x_464 +  x_458 - x_201 +  x_459 - x_204 = 0
x_460 - x_205 - x_465 = 0
Bounds
x_1 >= 0
x_2 >= 0
x_3 >= 0
x_4 >= 0
x_5 >= 0
x_6 >= 0
x_7 >= 0
x_8 >= 0
x_9 >= 0
x_10 >= 0
x_11 >= 0
x_12 >= 0
x_13 >= 0
x_14 >= 0
x_15 >= 0
x_16 >= 0
x_17 >= 0
x_18 >= 0
x_19 >= 0
x_20 >= 0
x_21 >= 0
x_22 >= 0
x_23 >= 0
x_24 >= 0
x_25 >= 0
x_26 >= 0
x_27 >= 0
x_28 >= 0
x_29 >= 0
x_30 >= 0
x_31 >= 0
x_32 >= 0
x_33 >= 0
x_34 >= 0
x_35 >= 0
x_36 >= 0
x_37 >= 0
x_38 >= 0
x_39 >= 0
x_40 >= 0
x_41 >= 0
x_42 >= 0
x_43 >= 0
x_44 >= 0
x_45 >= 0
x_46 >= 0
x_47 >= 0
x_48 >= 0
x_49 >= 0
x_50 >= 0
x_51 >= 0
x_52 >= 0
x_53 >= 0
x_54 >= 0
x_55 >= 0
x_56 >= 0
x_57 >= 0
x_58 >= 0
x_59 >= 0
x_60 >= 0
x_61 >= 0
x_62 >= 0
x_63 >= 0
x_64 >= 0
x_65 >= 0
x_66 >= 0
x_67 >= 0
x_68 >= 0
x_69 >= 0
x_70 >= 0
x_71 >= 0
x_72 >= 0
x_73 >= 0
x_74 >= 0
x_75 >= 0
x_76 >= 0
x_77 >= 0
x_78 >= 0
x_79 >= 0
x_80 >= 0
x_81 >= 0
x_82 >= 0
x_83 >= 0
x_84 >= 0
x_85 >= 0
x_86 >= 0
x_87 >= 0
x_88 >= 0
x_89 >= 0
x_90 >= 0
x_91 >= 0
x_92 >= 0
x_93 >= 0
x_94 >= 0
x_95 >= 0
x_96 >= 0
x_97 >= 0
x_98 >= 0
x_99 >= 0
x_100 >= 0
x_101 >= 0
x_102 >= 0
x_103 >= 0
x_104 >= 0
x_105 >= 0
x_106 >= 0
x_107 >= 0
x_108 >= 0
x_109 >= 0
x_110 >= 0
x_111 >= 0
x_112 >= 0
x_113 >= 0
x_114 >= 0
x_115 >= 0
x_116 >= 0
x_117 >= 0
x_118 >= 0
x_119 >= 0
x_120 >= 0
x_121 >= 0
x_122 >= 0
x_123 >= 0
x_124 >= 0
x_125 >= 0
x_126 >= 0
x_127 >= 0
x_128 >= 0
x_129 >= 0
x_130 >= 0
x_131 >= 0
x_132 >= 0
x_133 >= 0
x_134 >= 0
x_135 >= 0
x_136 >= 0
x_137 >= 0
x_138 >= 0
x_139 >= 0
x_140 >= 0
x_141 >= 0
x_142 >= 0
x_143 >= 0
x_144 >= 0
x_145 >= 0
x_146 >= 0
x_147 >= 0
x_148 >= 0
x_149 >= 0
x_150 >= 0
x_151 >= 0
x_152 >= 0
x_153 >= 0
x_154 >= 0
x_155 >= 0
x_156 >= 0
x_157 >= 0
x_158 >= 0
x_159 >= 0
x_160 >= 0
x_161 >= 0
x_162 >= 0
x_163 >= 0
x_164 >= 0
x_165 >= 0
x_166 >= 0
x_167 >= 0
x_168 >= 0
x_169 >= 0
x_170 >= 0
x_171 >= 0
x_172 >= 0
x_173 >= 0
x_174 >= 0
x_175 >= 0
x_176 >= 0
x_177 >= 0
x_178 >= 0
x_179 >= 0
x_180 >= 0
x_181 >= 0
x_182 >= 0
x_183 >= 0
x_184 >= 0
x_185 >= 0
x_186 >= 0
x_187 >= 0
x_188 >= 0
x_189 >= 0
x_190 >= 0
x_191 >= 0
x_192 >= 0
x_193 >= 0
x_194 >= 0
x_195 >= 0
x_196 >= 0
x_197 >= 0
x_198 >= 0
x_199 >= 0
x_200 >= 0
x_201 >= 0
x_202 >= 0
x_203 >= 0
x_204 >= 0
x_205 >= 0
x_206 >= 0
x_207 >= 0
x_208 >= 0
x_209 >= 0
x_210 >= 0
x_211 >= 0
x_212 >= 0
x_213 >= 0
x_214 >= 0
x_215 >= 0
x_216 >= 0
x_217 >= 0
x_218 >= 0
x_219 >= 0
x_220 >= 0
x_221 >= 0
x_222 >= 0
x_223 >= 0
x_224 >= 0
x_225 >= 0
x_226 >= 0
x_227 >= 0
x_228 >= 0
x_229 >= 0
x_230 >= 0
x_231 >= 0
x_232 >= 0
x_233 >= 0
x_234 >= 0
x_235 >= 0
x_236 >= 0
x_237 >= 0
x_238 >= 0
x_239 >= 0
x_240 >= 0
x_241 >= 0
x_242 >= 0
x_243 >= 0
x_244 >= 0
x_245 >= 0
x_246 >= 0
x_247 >= 0
x_248 >= 0
x_249 >= 0
x_250 >= 0
x_251 >= 0
x_252 >= 0
x_253 >= 0
x_254 >= 0
x_255 >= 0
x_256 >= 0
x_257 >= 0
x_258 >= 0
x_259 >= 0
x_260 >= 0
x_261 >= 0
x_262 >= 0
x_263 >= 0
x_264 >= 0
x_265 >= 0
x_266 >= 0
x_267 >= 0
x_268 >= 0
x_269 >= 0
x_270 >= 0
x_271 >= 0
x_272 >= 0
x_273 >= 0
x_274 >= 0
x_275 >= 0
x_276 >= 0
x_277 >= 0
x_278 >= 0
x_279 >= 0
x_280 >= 0
x_281 >= 0
x_282 >= 0
x_283 >= 0
x_284 >= 0
x_285 >= 0
x_286 >= 0
x_287 >= 0
x_288 >= 0
x_289 >= 0
x_290 >= 0
x_291 >= 0
x_292 >= 0
x_293 >= 0
x_294 >= 0
x_295 >= 0
x_296 >= 0
x_297 >= 0
x_298 >= 0
x_299 >= 0
x_300 >= 0
x_301 >= 0
x_302 >= 0
x_303 >= 0
x_304 >= 0
x_305 >= 0
x_306 >= 0
x_307 >= 0
x_308 >= 0
x_309 >= 0
x_310 >= 0
x_311 >= 0
x_312 >= 0
x_313 >= 0
x_314 >= 0
x_315 >= 0
x_316 >= 0
x_317 >= 0
x_318 >= 0
x_319 >= 0
x_320 >= 0
x_321 >= 0
x_322 >= 0
x_323 >= 0
x_324 >= 0
x_325 >= 0
x_326 >= 0
x_327 >= 0
x_328 >= 0
x_329 >= 0
x_330 >= 0
x_331 >= 0
x_332 >= 0
x_333 >= 0
x_334 >= 0
x_335 >= 0
x_336 >= 0
x_337 >= 0
x_338 >= 0
x_339 >= 0
x_340 >= 0
x_341 >= 0
x_342 >= 0
x_343 >= 0
x_344 >= 0
x_345 >= 0
x_346 >= 0
x_347 >= 0
x_348 >= 0
x_349 >= 0
x_350 >= 0
x_351 >= 0
x_352 >= 0
x_353 >= 0
x_354 >= 0
x_355 >= 0
x_356 >= 0
x_357 >= 0
x_358 >= 0
x_359 >= 0
x_360 >= 0
x_361 >= 0
x_362 >= 0
x_363 >= 0
x_364 >= 0
x_365 >= 0
x_366 >= 0
x_367 >= 0
x_368 >= 0
x_369 >= 0
x_370 >= 0
x_371 >= 0
x_372 >= 0
x_373 >= 0
x_374 >= 0
x_375 >= 0
x_376 >= 0
x_377 >= 0
x_378 >= 0
x_379 >= 0
x_380 >= 0
x_381 >= 0
x_382 >= 0
x_383 >= 0
x_384 >= 0
x_385 >= 0
x_386 >= 0
x_387 >= 0
x_388 >= 0
x_389 >= 0
x_390 >= 0
x_391 >= 0
x_392 >= 0
x_393 >= 0
x_394 >= 0
x_395 >= 0
x_396 >= 0
x_397 >= 0
x_398 >= 0
x_399 >= 0
x_400 >= 0
x_401 >= 0
x_402 >= 0
x_403 >= 0
x_404 >= 0
x_405 >= 0
x_406 >= 0
x_407 >= 0
x_408 >= 0
x_409 >= 0
x_410 >= 0
x_411 >= 0
x_412 >= 0
x_413 >= 0
x_414 >= 0
x_415 >= 0
x_416 >= 0
x_417 >= 0
x_418 >= 0
x_419 >= 0
x_420 >= 0
x_421 >= 0
x_422 >= 0
x_423 >= 0
x_424 >= 0
x_425 >= 0
x_426 >= 0
x_427 >= 0
x_428 >= 0
x_429 >= 0
x_430 >= 0
x_431 >= 0
x_432 >= 0
x_433 >= 0
x_434 >= 0
x_435 >= 0
x_436 >= 0
x_437 >= 0
x_438 >= 0
x_439 >= 0
x_440 >= 0
x_441 >= 0
x_442 >= 0
x_443 >= 0
x_444 >= 0
x_445 >= 0
x_446 >= 0
x_447 >= 0
x_448 >= 0
x_449 >= 0
x_450 >= 0
x_451 >= 0
x_452 >= 0
x_453 >= 0
x_454 >= 0
x_455 >= 0
x_456 >= 0
x_457 >= 0
x_458 >= 0
x_459 >= 0
x_460 >= 0
x_461 >= 0
x_462 >= 0
x_463 >= 0
x_464 >= 0
x_465 >= 0
x_466 >= 0
x_467 >= 0
x_468 >= 0
x_469 >= 0
x_470 >= 0
x_471 >= 0
x_472 >= 0
x_473 >= 0
x_474 >= 0
x_475 >= 0
x_476 >= 0
x_477 >= 0
x_478 >= 0
x_479 >= 0
x_480 >= 0
x_481 >= 0
x_482 >= 0
x_483 >= 0
General
Binaries
y_1
y_2
y_3
y_4
y_5
y_6
y_7
y_8
y_9
y_10
y_11
y_12
y_13
y_14
y_15
y_16
y_17
y_18
y_19
y_20
y_21
y_22
y_23
y_24
y_25
y_26
y_27
y_28
y_29
y_30
y_31
y_32
y_33
y_34
y_35
y_36
y_37
y_38
y_39
y_40
y_41
y_42
y_43
y_44
y_45
y_46
y_47
y_48
y_49
y_50
y_51
y_52
y_53
y_54
y_55
y_56
y_57
y_58
y_59
y_60
y_61
y_62
y_63
y_64
y_65
y_66
y_67
y_68
y_69
y_70
y_71
y_72
y_73
y_74
y_75
y_76
y_77
y_78
y_79
y_80
y_81
y_82
y_83
y_84
y_85
y_86
y_87
y_88
y_89
y_90
y_91
y_92
y_93
y_94
y_95
y_96
y_97
y_98
y_99
y_100
y_101
y_102
y_103
y_104
y_105
y_106
y_107
y_108
y_109
y_110
y_111
y_112
y_113
y_114
y_115
y_116
y_117
y_118
y_119
y_120
y_121
y_122
y_123
y_124
y_125
y_126
y_127
y_128
y_129
y_130
y_131
y_132
y_133
y_134
y_135
y_136
y_137
y_138
y_139
y_140
y_141
y_142
y_143
y_144
y_145
y_146
y_147
y_148
y_149
y_150
y_151
y_152
y_153
y_154
y_155
y_156
y_157
y_158
y_159
y_160
y_161
y_162
y_163
y_164
y_165
y_166
y_167
y_168
y_169
y_170
y_171
y_172
y_173
y_174
y_175
y_176
y_177
y_178
y_179
y_180
y_181
y_182
y_183
y_184
y_185
y_186
y_187
y_188
y_189
y_190
y_191
y_192
y_193
y_194
y_195
y_196
y_197
y_198
y_199
y_200
y_201
y_202
y_203
y_204
y_205
y_206
y_207
y_208
y_209
y_210
y_211
y_212
y_213
y_214
y_215
y_216
y_217
y_218
y_219
y_220
y_221
y_222
y_223
y_224
y_225
y_226
y_227
y_228
y_229
y_230
y_231
y_232
y_233
y_234
y_235
y_236
y_237
y_238
y_239
y_240
y_241
y_242
y_243
y_244
y_245
y_246
y_247
y_248
y_249
y_250
y_251
y_252
y_253
y_254
y_255
y_256
y_257
y_258
y_259
y_260
y_261
y_262
y_263
y_264
y_265
y_266
y_267
y_268
y_269
y_270
y_271
y_272
y_273
y_274
y_275
y_276
y_277
y_278
y_279
y_280
y_281
y_282
y_283
y_284
y_285
y_286
y_287
y_288
y_289
y_290
y_291
y_292
y_293
y_294
y_295
y_296
y_297
y_298
y_299
y_300
y_301
y_302
y_303
y_304
y_305
y_306
y_307
y_308
y_309
y_310
y_311
y_312
y_313
y_314
y_315
y_316
y_317
y_318
y_319
y_320
y_321
y_322
y_323
y_324
y_325
y_326
y_327
y_328
y_329
y_330
y_331
y_332
y_333
y_334
y_335
y_336
y_337
y_338
y_339
y_340
y_341
y_342
y_343
y_344
y_345
y_346
y_347
y_348
y_349
y_350
y_351
y_352
y_353
y_354
y_355
y_356
y_357
y_358
y_359
y_360
y_361
y_362
y_363
y_364
y_365
y_366
y_367
y_368
y_369
y_370
y_371
y_372
y_373
y_374
y_375
y_376
y_377
y_378
y_379
y_380
y_381
y_382
y_383
y_384
y_385
y_386
y_387
y_388
y_389
y_390
y_391
y_392
y_393
y_394
y_395
y_396
y_397
y_398
y_399
y_400
y_401
y_402
y_403
y_404
y_405
y_406
y_407
y_408
y_409
y_410
y_411
y_412
y_413
y_414
y_415
y_416
y_417
y_418
y_419
y_420
y_421
y_422
y_423
y_424
y_425
y_426
y_427
y_428
y_429
y_430
y_431
y_432
y_433
y_434
y_435
y_436
y_437
y_438
y_439
y_440
y_441
y_442
y_443
y_444
y_445
y_446
y_447
y_448
y_449
y_450
y_451
y_452
y_453
y_454
y_455
y_456
y_457
y_458
y_459
y_460
End
