data/solutions/exact100kb/instance145.txt
VALUE 2300294
1 21
2 22
5 26
7 8
8 30
11 36
14 64
18 20
20 109
21 101
22 24
24 103
26 28
28 96
30 32
32 34
34 89
36 38
38 40
40 42
42 82
44 128
46 76
46 48
48 50
51 53
53 55
55 57
57 59
59 61
61 65
64 66
65 66
66 72
72 74
44 74
76 77
77 78
44 78
44 82
11 89
8 96
24 101
5 103
2 109
1 110
5 111
7 112
11 113
14 114
18 115
20 116
22 117
24 118
26 119
28 120
30 121
32 122
34 123
36 124
38 125
40 126
42 127
46 129
48 130
50 131
51 132

